<?xml version = "1.0" standalone="yes"?>
<!-- This file has been generated by DOcplex version 2.23.222  -->
<CPLEXSolution version="1.0">
 <header
   problemName="CVRP"
   objectiveValue="14164"
  />
 <variables>
  <variable name="x_0_3" index="2" value="1.00000"/>
  <variable name="x_0_4" index="3" value="1.00000"/>
  <variable name="x_0_5" index="4" value="1.00000"/>
  <variable name="x_0_6" index="5" value="1.00000"/>
  <variable name="x_0_9" index="8" value="1.00000"/>
  <variable name="x_0_10" index="9" value="1.00000"/>
  <variable name="x_0_11" index="10" value="1.00000"/>
  <variable name="x_0_12" index="11" value="1.00000"/>
  <variable name="x_0_13" index="12" value="1.00000"/>
  <variable name="x_0_15" index="14" value="1.00000"/>
  <variable name="x_0_17" index="16" value="1.00000"/>
  <variable name="x_0_18" index="17" value="1.00000"/>
  <variable name="x_0_20" index="19" value="1.00000"/>
  <variable name="x_1_0" index="20" value="1.00000"/>
  <variable name="x_2_7" index="46" value="1.00000"/>
  <variable name="x_3_0" index="60" value="1.00000"/>
  <variable name="x_4_0" index="80" value="1.00000"/>
  <variable name="x_5_0" index="100" value="1.00000"/>
  <variable name="x_6_16" index="135" value="1.00000"/>
  <variable name="x_7_8" index="147" value="1.00000"/>
  <variable name="x_8_1" index="161" value="1.00000"/>
  <variable name="x_9_0" index="180" value="1.00000"/>
  <variable name="x_10_0" index="200" value="1.00000"/>
  <variable name="x_11_0" index="220" value="1.00000"/>
  <variable name="x_12_14" index="253" value="1.00000"/>
  <variable name="x_13_0" index="260" value="1.00000"/>
  <variable name="x_14_0" index="280" value="1.00000"/>
  <variable name="x_15_0" index="300" value="1.00000"/>
  <variable name="x_16_0" index="320" value="1.00000"/>
  <variable name="x_17_2" index="342" value="1.00000"/>
  <variable name="x_18_0" index="360" value="1.00000"/>
  <variable name="x_19_0" index="380" value="1.00000"/>
  <variable name="x_20_19" index="419" value="1.00000"/>
  <variable name="u_1" index="420" value="28.00000"/>
  <variable name="u_2" index="421" value="7.00000"/>
  <variable name="u_3" index="422" value="27.00000"/>
  <variable name="u_4" index="423" value="20.00000"/>
  <variable name="u_5" index="424" value="26.00000"/>
  <variable name="u_6" index="425" value="16.00000"/>
  <variable name="u_7" index="426" value="8.00000"/>
  <variable name="u_8" index="427" value="21.00000"/>
  <variable name="u_9" index="428" value="32.00000"/>
  <variable name="u_10" index="429" value="31.00000"/>
  <variable name="u_11" index="430" value="24.00000"/>
  <variable name="u_12" index="431" value="16.00000"/>
  <variable name="u_13" index="432" value="24.00000"/>
  <variable name="u_14" index="433" value="31.00000"/>
  <variable name="u_15" index="434" value="26.00000"/>
  <variable name="u_16" index="435" value="33.00000"/>
  <variable name="u_17" index="436" value="1.00000"/>
  <variable name="u_18" index="437" value="29.00000"/>
  <variable name="u_19" index="438" value="33.00000"/>
  <variable name="u_20" index="439" value="16.00000"/>
 </variables>
</CPLEXSolution>
